
List of user-set options:

                                    Name   Value                used
                linear_scaling_on_demand = no                    yes
                           linear_solver = ma86                  yes
                   linear_system_scaling = mc19                  yes
                                max_iter = 500                   yes
                                 mu_init = 1e-06                 yes
                             output_file = ./tmp/ipopt_output_tmp.output  yes
                      print_user_options = yes                   yes
        required_infeasibility_reduction = 1                      no
                   warm_start_bound_push = 1e-20                 yes
                   warm_start_init_point = yes                   yes
              warm_start_mult_bound_push = 1e-20                 yes

******************************************************************************
This program contains Ipopt, a library for large-scale nonlinear optimization.
 Ipopt is released as open source code under the Eclipse Public License (EPL).
         For more information visit http://projects.coin-or.org/Ipopt
******************************************************************************

This is Ipopt version 3.12.10, running with linear solver ma86.

Number of nonzeros in equality constraint Jacobian...:   117110
Number of nonzeros in inequality constraint Jacobian.:      213
Number of nonzeros in Lagrangian Hessian.............:    47392

Total number of variables............................:    29961
                     variables with only lower bounds:    11312
                variables with lower and upper bounds:    15122
                     variables with only upper bounds:        0
Total number of equality constraints.................:    29863
Total number of inequality constraints...............:       25
        inequality constraints with only lower bounds:        4
   inequality constraints with lower and upper bounds:        0
        inequality constraints with only upper bounds:       21

iter    objective    inf_pr   inf_du lg(mu)  ||d||  lg(rg) alpha_du alpha_pr  ls
   0 -1.2452496e-01 1.49e-04 2.05e-03  -6.0 0.00e+00    -  0.00e+00 0.00e+00   0
   1 -1.2483335e-01 3.30e+00 4.88e+01  -6.0 1.05e+03    -  8.59e-03 4.14e-01h  1
   2 -1.2482347e-01 3.30e+00 4.88e+01  -6.0 1.59e+04    -  1.75e-06 2.46e-04f  2
   3 -1.2483389e-01 3.27e+00 4.76e+01  -6.0 8.46e+02    -  1.80e-02 1.09e-02h  1
   4 -1.2482628e-01 3.22e+00 4.70e+01  -6.0 1.18e+01  -4.0 1.34e-02 1.40e-02h  1
   5 -1.2483550e-01 2.98e+00 4.96e+01  -6.0 3.45e+00  -4.5 1.51e-01 7.60e-02h  1
   6 -1.2481552e-01 1.47e+00 4.90e+01  -6.0 7.69e-01  -5.0 1.26e-01 5.06e-01f  1
   7 -1.2478731e-01 9.42e-01 2.59e+01  -6.0 4.75e+00  -5.4 1.00e+00 3.60e-01h  1
   8 -1.2475261e-01 2.67e-01 7.37e+00  -6.0 4.18e+00  -5.9 5.41e-01 7.17e-01h  1
   9 -1.2486340e-01 2.84e-01 6.46e+00  -6.0 4.11e+02    -  1.63e-01 1.35e-01h  1
iter    objective    inf_pr   inf_du lg(mu)  ||d||  lg(rg) alpha_du alpha_pr  ls
  10 -1.2482517e-01 4.63e-01 2.97e+01  -6.0 4.14e+02    -  6.91e-01 3.00e-01h  2
  11 -1.2482777e-01 4.89e-01 6.17e+01  -6.0 7.65e+02    -  7.12e-01 1.26e-01h  3
  12 -1.2484954e-01 8.95e-01 3.35e+01  -6.0 6.71e+02    -  8.39e-01 6.49e-01H  1
  13 -1.2483163e-01 2.29e+01 9.29e+01  -6.0 1.50e+03    -  4.40e-01 7.75e-01h  1
  14 -1.2482473e-01 2.16e+01 4.03e+02  -6.0 2.17e+03    -  6.65e-01 2.37e-01h  1
  15 -1.2457349e-01 1.32e+02 3.18e+02  -6.0 8.65e+03    -  3.53e-01 3.17e-01h  1
  16 -1.2458612e-01 1.32e+02 3.21e+02  -6.0 1.07e+05    -  3.75e-06 6.86e-04h  5
  17 -1.2459009e-01 1.29e+02 2.01e+03  -6.0 1.43e+01  -6.4 1.00e+00 2.34e-02h  1
  18 -1.2448604e-01 3.79e+01 1.98e+02  -6.0 1.68e+03    -  1.13e-01 9.30e-01h  1
  19 -1.2461285e-01 2.33e+01 1.52e+03  -6.0 1.38e+02    -  5.77e-01 3.88e-01h  1
iter    objective    inf_pr   inf_du lg(mu)  ||d||  lg(rg) alpha_du alpha_pr  ls
  20 -1.2495136e-01 2.00e+00 1.23e+03  -6.0 1.70e+02    -  1.00e+00 9.14e-01h  1
  21 -1.2496068e-01 1.98e+00 1.94e+03  -6.0 8.95e+02    -  1.92e-02 1.19e-02h  1
  22 -1.2499213e-01 2.20e+00 3.16e+03  -6.0 2.10e+03    -  1.86e-01 8.13e-02h  1
  23 -1.2487091e-01 1.33e+01 1.18e+06  -6.0 2.20e+03    -  9.99e-03 4.36e-01h  1
  24 -1.2485347e-01 1.31e+01 1.17e+06  -6.0 1.35e+03    -  9.77e-05 5.76e-03H  1
  25 -1.2495243e-01 3.38e+00 2.37e+05  -6.0 2.83e+02    -  2.71e-01 7.96e-01h  1
  26 -1.2494358e-01 7.07e-01 2.65e+02  -6.0 7.38e+01  -6.9 1.29e-01 1.00e+00h  1
  27 -1.2495067e-01 6.95e-01 2.48e+02  -6.0 7.82e+02    -  3.88e-01 1.73e-02h  1
  28 -1.2505077e-01 1.01e-01 3.34e+01  -6.0 1.38e+01  -7.3 8.95e-01 8.60e-01f  1
  29 -1.2504892e-01 9.33e-02 3.31e+01  -6.0 2.49e+01  -7.8 1.00e+00 7.58e-02h  1
iter    objective    inf_pr   inf_du lg(mu)  ||d||  lg(rg) alpha_du alpha_pr  ls
  30 -1.2494502e-01 4.01e+00 2.75e+01  -6.0 3.39e+03    -  3.17e-01 1.66e-01f  1
  31 -1.2486024e-01 4.89e+00 3.85e+01  -6.0 7.24e+03    -  9.29e-03 4.00e-02h  3
  32 -1.2489642e-01 3.48e+00 2.72e+01  -6.0 2.56e+02  -8.3 5.42e-02 2.89e-01h  1
  33 -1.2487545e-01 3.12e+00 3.93e+01  -6.0 1.28e+03  -8.8 5.47e-01 1.25e-01f  1
  34 -1.2488825e-01 1.21e+00 1.94e+01  -6.0 2.34e+02  -9.2 4.74e-01 7.19e-01h  1
  35 -1.2495498e-01 4.09e-02 3.05e+01  -6.0 4.80e+01  -8.8 3.06e-01 1.00e+00h  1
  36 -1.2495950e-01 4.08e-02 2.67e+01  -6.0 2.56e+02    -  4.23e-01 9.50e-02h  2
  37 -1.2517164e-01 6.29e-01 2.62e+01  -6.0 7.29e+02    -  1.00e+00 6.67e-01H  1
  38 -1.2522893e-01 9.51e-02 8.38e+01  -6.0 8.62e+01  -9.3 5.45e-01 1.00e+00h  1
  39 -1.2524377e-01 1.12e-01 4.90e+02  -6.0 3.75e+02  -9.8 5.70e-01 1.42e-01h  1
iter    objective    inf_pr   inf_du lg(mu)  ||d||  lg(rg) alpha_du alpha_pr  ls
  40 -1.2519252e-01 1.81e+00 1.24e+02  -6.0 5.22e+02  -9.4 7.57e-01 7.48e-01h  1
  41 -1.2521648e-01 1.67e+00 3.41e+03  -6.0 2.57e+02    -  9.65e-01 7.57e-02h  1
  42 -1.2538752e-01 7.99e-01 6.60e+02  -6.0 2.23e+02    -  1.15e-01 6.36e-01h  1
  43 -1.2548204e-01 5.59e-01 2.06e+02  -6.0 1.58e+02    -  2.60e-01 3.01e-01h  1
  44 -1.2552112e-01 4.85e-01 3.21e+06  -6.0 5.02e+02    -  3.87e-04 1.35e-01h  1
  45 -1.2552576e-01 2.22e-01 3.26e+03  -6.0 8.61e+01    -  1.06e-01 1.00e+00h  1
  46 -1.2552734e-01 1.85e-02 5.63e+00  -6.0 3.92e+01    -  8.51e-01 1.00e+00h  1
  47 -1.2564653e-01 4.81e-02 5.72e+00  -6.0 2.12e+03  -9.8 2.08e-02 2.10e-02h  1
  48 -1.2564239e-01 8.14e-01 1.12e+01  -6.0 1.35e+03 -10.3 4.09e-01 9.22e-02h  3
  49 -1.2564020e-01 8.40e-01 1.02e+01  -6.0 8.54e+02  -9.9 7.52e-02 9.33e-02h  2
iter    objective    inf_pr   inf_du lg(mu)  ||d||  lg(rg) alpha_du alpha_pr  ls
  50 -1.2566163e-01 7.26e-01 8.48e+00  -6.0 2.38e+01  -7.6 1.71e-01 1.36e-01h  1
  51 -1.2566278e-01 7.25e-01 1.29e+01  -6.0 4.23e+03    -  1.45e-01 1.42e-03h  2
  52 -1.2569688e-01 8.95e-01 1.16e+01  -6.0 1.74e+03    -  1.37e-01 1.00e-01h  2
  53 -1.2568316e-01 8.91e-01 1.16e+01  -6.0 8.81e+02  -7.2 1.58e-03 4.28e-03h  3
  54 -1.2569296e-01 8.83e-01 1.05e+01  -6.0 2.35e+01  -5.9 2.26e-01 9.91e-03h  1
  55 -1.2569370e-01 8.82e-01 1.15e+01  -6.0 3.23e+03    -  8.28e-02 9.75e-04h  2
  56 -1.2580241e-01 5.23e-01 7.75e+00  -6.0 2.62e+02    -  1.00e+00 5.88e-01h  1
  57 -1.2592710e-01 7.02e-02 3.34e-01  -6.0 6.83e+01    -  1.00e+00 1.00e+00h  1
  58 -1.2595277e-01 2.06e-01 1.31e+01  -6.0 4.20e+02    -  3.83e-01 2.75e-01h  1
  59 -1.2592076e-01 1.58e+01 5.99e+01  -6.0 1.32e+03    -  1.00e+00 8.60e-01h  1
iter    objective    inf_pr   inf_du lg(mu)  ||d||  lg(rg) alpha_du alpha_pr  ls
  60 -1.2616911e-01 4.01e+00 3.73e+02  -6.0 5.03e+02    -  1.89e-01 1.00e+00h  1
  61 -1.2620396e-01 3.47e+00 4.77e+02  -6.0 7.94e+01    -  4.65e-01 1.34e-01h  1
  62 -1.2642081e-01 6.68e-01 1.59e+01  -6.0 9.84e+01    -  1.00e+00 1.00e+00h  1
  63 -1.2644316e-01 6.21e-01 9.82e+02  -6.0 9.55e+00  -6.4 2.10e-01 7.06e-02h  1
  64 -1.2648829e-01 4.83e-01 3.33e+02  -6.0 8.11e+00  -6.8 7.68e-02 2.22e-01h  1
  65 -1.2654004e-01 3.24e-02 2.03e+03  -6.0 1.36e+01  -7.3 2.89e-01 1.00e+00h  1
  66 -1.2659796e-01 3.06e-02 1.60e+03  -6.0 5.06e+01  -7.8 2.50e-01 1.94e-01h  1
  67 -1.2662247e-01 5.87e-02 1.12e+03  -6.0 9.22e+01  -8.3 2.74e-01 2.17e-01f  1
  68 -1.2672847e-01 1.38e-01 5.37e+00  -6.0 8.62e+01  -8.8 1.00e+00 1.00e+00f  1
  69 -1.2681505e-01 2.55e-01 6.83e+00  -6.0 1.20e+02  -9.2 9.49e-01 1.00e+00h  1
iter    objective    inf_pr   inf_du lg(mu)  ||d||  lg(rg) alpha_du alpha_pr  ls
  70 -1.2681829e-01 4.97e-01 9.43e-01  -6.0 1.01e+02  -9.7 1.00e+00 1.00e+00h  1
  71 -1.2681144e-01 2.51e-01 1.62e-01  -6.0 4.13e+01  -9.3 1.00e+00 1.00e+00h  1
  72 -1.2680622e-01 3.60e-01 2.59e+00  -6.0 2.08e+02  -9.8 1.00e+00 3.16e-01h  2
  73 -1.2679898e-01 3.99e-01 1.22e+01  -6.0 9.15e+02 -10.2 8.39e-01 9.10e-02h  2
  74 -1.2678950e-01 4.01e-01 1.58e+01  -6.0 1.29e+03    -  8.98e-01 7.23e-02h  2
  75 -1.2677912e-01 3.21e-01 5.93e+00  -6.0 4.42e+02    -  8.18e-01 2.42e-01h  2
  76 -1.2677627e-01 8.97e-02 2.93e-01  -6.0 5.38e+01    -  1.00e+00 1.00e+00h  1
  77 -1.2675919e-01 9.03e-03 1.06e+00  -6.0 6.76e+01    -  1.00e+00 9.91e-01H  1
  78 -1.2676493e-01 8.99e-03 1.29e-01  -6.0 2.08e+01    -  1.00e+00 1.00e+00f  1
  79 -1.2676522e-01 7.39e-05 5.20e-04  -6.0 2.04e+00    -  1.00e+00 1.00e+00h  1
iter    objective    inf_pr   inf_du lg(mu)  ||d||  lg(rg) alpha_du alpha_pr  ls
  80 -1.2676522e-01 1.42e-09 8.84e-09  -6.0 7.95e-03    -  1.00e+00 1.00e+00h  1
  81 -1.2701279e-01 1.68e+00 5.55e+01  -9.0 4.48e+02    -  2.74e-01 3.63e-01f  1
  82 -1.2719574e-01 2.44e+00 8.58e+01  -9.0 1.18e+03    -  6.53e-02 2.78e-01h  1
  83 -1.2723685e-01 1.92e+00 8.99e+01  -9.0 1.31e+03    -  1.74e-03 7.69e-02h  1
  84 -1.2723727e-01 1.92e+00 7.59e+01  -9.0 2.25e+03    -  9.86e-02 6.35e-04h  1
  85 -1.2736064e-01 2.95e+00 5.51e+01  -9.0 1.65e+03    -  2.73e-01 2.33e-01f  1
  86 -1.2739906e-01 3.08e+00 2.80e+01  -9.0 2.17e+03    -  3.66e-01 7.91e-02h  1
  87 -1.2759164e-01 1.26e+01 1.92e+01  -9.0 2.34e+03    -  4.82e-01 4.00e-01h  1
  88 -1.2759276e-01 1.26e+01 1.92e+01  -9.0 2.64e+03    -  1.65e-05 2.88e-03h  1
  89 -1.2783338e-01 4.75e+01 6.34e+01  -9.0 4.02e+03    -  1.47e-03 4.45e-01h  1
iter    objective    inf_pr   inf_du lg(mu)  ||d||  lg(rg) alpha_du alpha_pr  ls
  90 -1.2783433e-01 4.75e+01 6.35e+01  -9.0 8.08e+03    -  7.55e-06 1.33e-03h  1
  91 -1.2797535e-01 7.20e+01 8.12e+01  -9.0 6.28e+03    -  7.21e-04 2.61e-01h  1
  92 -1.2797438e-01 6.88e+01 1.31e+02  -9.0 2.09e+03    -  1.34e-05 4.62e-02h  1
  93 -1.2797456e-01 6.88e+01 1.31e+02  -9.0 1.42e+04  -9.8 1.55e-02 1.34e-04h  1
  94 -1.2796995e-01 6.73e+01 1.24e+02  -9.0 2.10e+03    -  1.95e-02 2.12e-02h  1
  95 -1.2798206e-01 6.35e+01 1.16e+02  -9.0 2.12e+03    -  6.02e-02 6.13e-02h  1
  96 -1.2809331e-01 5.07e+01 2.81e+02  -9.0 2.10e+03    -  7.26e-02 6.34e-01h  1
  97 -1.2810830e-01 4.41e+01 2.32e+02  -9.0 1.96e+03    -  1.35e-01 1.62e-01h  1
  98 -1.2814186e-01 3.62e+01 1.41e+02  -9.0 1.94e+03    -  4.40e-01 3.52e-01h  1
  99 -1.2817195e-01 3.15e+01 6.96e+02  -9.0 1.88e+03    -  1.03e-01 4.27e-01h  1
iter    objective    inf_pr   inf_du lg(mu)  ||d||  lg(rg) alpha_du alpha_pr  ls
 100 -1.2819052e-01 2.06e+01 3.91e+02  -9.0 8.41e+02    -  4.29e-02 4.05e-01h  1
 101 -1.2820455e-01 1.06e+01 9.42e+02  -9.0 6.94e+02    -  5.11e-02 6.32e-01h  1
 102 -1.2820723e-01 1.01e+01 2.16e+03  -9.0 6.99e+02    -  4.71e-01 4.30e-02h  1
 103 -1.2824282e-01 7.14e+00 1.50e+03  -9.0 7.27e+02    -  6.15e-01 5.18e-01h  1
 104 -1.2827236e-01 6.29e+00 2.74e+04  -9.0 1.50e+03    -  3.22e-02 1.56e-01h  1
 105 -1.2826461e-01 6.01e+00 2.61e+04  -9.0 5.35e+02    -  8.26e-06 4.48e-02h  1
 106 -1.2824970e-01 3.07e+00 1.33e+04  -9.0 1.14e+02    -  3.02e-01 4.90e-01h  1
 107 -1.2823296e-01 1.68e-01 1.48e+01  -9.0 9.63e+01    -  1.19e-02 1.00e+00h  1
 108 -1.2823558e-01 1.01e-01 8.63e+00  -9.0 5.27e+01  -8.5 4.59e-02 4.15e-01h  1
 109 -1.2824703e-01 9.39e-02 1.24e+00  -9.0 7.19e+01    -  4.31e-01 1.00e+00h  1
iter    objective    inf_pr   inf_du lg(mu)  ||d||  lg(rg) alpha_du alpha_pr  ls
 110 -1.2825001e-01 9.28e-02 4.36e+00  -9.0 3.32e+02    -  1.69e-01 1.85e-02h  1
 111 -1.2827148e-01 2.92e-02 6.23e-01  -9.0 4.02e+01    -  7.97e-01 1.00e+00h  1
 112 -1.2828084e-01 2.49e-02 1.15e+01  -9.0 5.23e+01    -  6.43e-01 2.68e-01h  1
 113 -1.2831807e-01 4.96e-02 3.42e-01  -9.0 5.24e+01    -  1.00e+00 1.00e+00h  1
 114 -1.2833512e-01 3.91e-02 5.36e+01  -9.0 6.28e+01    -  6.48e-01 3.20e-01h  1
 115 -1.2839157e-01 8.20e-02 1.19e-01  -9.0 7.20e+01    -  1.00e+00 1.00e+00h  1
 116 -1.2841739e-01 8.95e-02 6.62e+01  -9.0 1.38e+02    -  4.23e-01 3.44e-01h  1
 117 -1.2842058e-01 8.66e-02 1.28e+03  -9.0 1.63e+02    -  1.00e+00 3.97e-02h  1
 118 -1.2850186e-01 1.00e-01 1.41e+01  -9.0 7.48e+01    -  6.53e-01 1.00e+00h  1
 119 -1.2851716e-01 9.14e-02 1.06e+02  -9.0 1.40e+02    -  2.38e-01 1.72e-01h  1
iter    objective    inf_pr   inf_du lg(mu)  ||d||  lg(rg) alpha_du alpha_pr  ls
 120 -1.2858305e-01 3.86e-01 3.35e+02  -9.0 1.73e+02    -  5.39e-03 8.35e-01h  1
 121 -1.2858131e-01 3.86e-01 6.15e+04  -9.0 7.19e+03    -  3.80e-05 9.98e-04h  2
 122 -1.2865182e-01 5.25e-01 2.87e+04  -9.0 2.01e+02    -  4.48e-03 5.30e-01h  1
 123 -1.2866479e-01 2.71e-01 1.40e+04  -9.0 2.09e+02    -  4.82e-01 5.11e-01h  1
 124 -1.2870823e-01 3.44e-01 7.17e+00  -9.0 1.48e+02    -  7.06e-01 1.00e+00h  1
 125 -1.2871801e-01 2.90e-01 6.00e+00  -9.0 7.10e+01    -  5.16e-01 1.63e-01h  1
 126 -1.2877952e-01 6.47e-02 2.11e-01  -9.0 6.36e+01    -  1.00e+00 1.00e+00h  1
 127 -1.2880781e-01 4.25e-02 1.35e+01  -9.0 4.43e+01    -  5.49e-01 3.46e-01h  1
 128 -1.2889283e-01 3.51e-02 6.79e-01  -9.0 4.40e+01    -  1.00e+00 1.00e+00h  1
 129 -1.2893290e-01 2.75e-02 6.27e+01  -9.0 9.74e+01    -  6.59e-01 4.22e-01h  1
iter    objective    inf_pr   inf_du lg(mu)  ||d||  lg(rg) alpha_du alpha_pr  ls
 130 -1.2902634e-01 5.12e-01 9.07e-01  -9.0 1.79e+02    -  1.00e+00 1.00e+00h  1
 131 -1.2907182e-01 2.21e+00 9.70e+01  -9.0 6.33e+02    -  4.41e-01 5.55e-01h  1
 132 -1.2914540e-01 1.55e+01 7.88e+02  -9.0 9.74e+02    -  3.80e-01 1.00e+00h  1
 133 -1.2916928e-01 5.46e+01 6.07e+02  -9.0 2.70e+03    -  3.81e-01 6.27e-01h  1
 134 -1.2916908e-01 5.44e+01 2.32e+03  -9.0 1.61e+03    -  3.74e-02 4.63e-03h  1
 135 -1.2916694e-01 4.72e+01 2.47e+03  -9.0 1.50e+03    -  3.92e-03 1.46e-01h  1
 136 -1.2916490e-01 4.01e+01 1.91e+03  -9.0 2.12e+03    -  1.43e-01 2.22e-01h  1
 137 -1.2916403e-01 3.28e+01 1.08e+03  -9.0 1.98e+03    -  3.60e-02 4.32e-01h  1
 138 -1.2917346e-01 2.74e+01 3.66e+05  -9.0 1.61e+03    -  2.40e-04 6.90e-01f  1
 139 -1.2917612e-01 2.17e+01 2.90e+05  -9.0 6.04e+01  -9.0 2.89e-01 2.08e-01h  1
iter    objective    inf_pr   inf_du lg(mu)  ||d||  lg(rg) alpha_du alpha_pr  ls
 140 -1.2918710e-01 2.01e-01 9.72e-01  -9.0 8.94e+01  -9.4 1.94e-01 1.00e+00h  1
 141 -1.2918913e-01 1.29e-01 4.76e-01  -9.0 2.39e+00  -6.3 5.45e-01 3.57e-01h  1
 142 -1.2923340e-01 2.17e-02 3.35e-01  -9.0 2.09e+01  -6.8 4.03e-02 8.44e-01f  1
 143 -1.2912072e-01 2.18e-02 1.73e+01  -9.0 2.92e+01  -7.3 1.69e-06 3.73e-01h  1
 144 -1.2912422e-01 1.88e-02 1.45e+01  -9.0 1.85e+01  -7.7 1.07e-05 1.64e-01h  1
 145 -1.2919500e-01 8.43e-03 3.65e+00  -9.0 1.56e+01  -7.3 1.24e-03 7.49e-01h  1
 146 -1.2920801e-01 6.84e-03 2.95e+00  -9.0 3.36e+00  -6.0 7.30e-01 1.91e-01f  1
 147 -1.2936646e-01 2.05e-02 4.16e-01  -9.0 1.97e+01  -6.5 3.46e-02 8.64e-01f  1
 148 -1.2936623e-01 2.05e-02 4.24e-01  -9.0 2.64e+01  -6.9 9.47e-06 5.25e-04h  1
 149 -1.2936675e-01 2.05e-02 4.51e-01  -9.0 5.76e+02  -6.5 2.27e-05 4.22e-05h  1
iter    objective    inf_pr   inf_du lg(mu)  ||d||  lg(rg) alpha_du alpha_pr  ls
 150 -1.2936689e-01 2.03e-02 3.81e+01  -9.0 2.15e+02  -7.0 3.16e-02 8.20e-04f  1
 151 -1.2939928e-01 1.94e-02 5.21e+01  -9.0 4.99e+01  -7.5 1.07e-01 4.23e-02h  1
 152 -1.2948493e-01 1.51e-02 3.53e+01  -9.0 1.51e+01  -7.9 6.86e-01 2.70e-01f  1
 153 -1.2963982e-01 1.79e-02 1.50e+01  -9.0 2.05e+01  -8.4 7.17e-01 5.87e-01f  1
 154 -1.2967264e-01 1.96e-02 2.98e+00  -9.0 8.39e+01  -8.9 4.43e-01 3.53e-01h  1
 155 -1.2969620e-01 5.58e-01 8.60e-01  -9.0 1.79e+02  -9.4 8.92e-01 9.10e-01h  1
 156 -1.2970857e-01 8.95e-01 1.86e+01  -9.0 7.68e+02  -9.8 1.00e+00 1.88e-01h  1
 157 -1.2972694e-01 7.12e+00 1.08e+00  -9.0 6.62e+02 -10.3 1.00e+00 1.00e+00h  1
 158 -1.2979746e-01 5.72e+01 6.14e+00  -9.0 2.90e+03 -10.8 1.00e+00 6.23e-01h  1
 159 -1.2980331e-01 3.03e+01 4.17e+02  -9.0 1.93e+02    -  1.00e+00 4.70e-01h  1
iter    objective    inf_pr   inf_du lg(mu)  ||d||  lg(rg) alpha_du alpha_pr  ls
 160 -1.2986877e-01 4.27e+01 1.49e+02  -9.0 3.38e+03    -  6.16e-02 3.24e-01h  1
 161 -1.2991757e-01 3.49e+01 1.18e+03  -9.0 1.64e+03    -  2.88e-02 2.91e-01h  1
 162 -1.3010085e-01 3.86e+01 2.94e+07  -9.0 1.37e+03    -  3.42e-05 1.00e+00f  1
 163 -1.3025956e-01 4.01e+01 2.59e+07  -9.0 4.46e+03  -9.5 1.98e-01 1.19e-01h  1
 164 -1.3047069e-01 9.24e-02 1.81e+04  -9.0 6.38e+01    -  1.51e-01 1.00e+00h  1
 165 -1.3054346e-01 2.31e-01 1.50e+00  -9.0 1.02e+02  -8.1 1.00e+00 1.00e+00h  1
 166 -1.3066210e-01 7.07e-01 2.06e+01  -9.0 6.28e+02  -8.6 4.14e-01 2.46e-01h  1
 167 -1.3084206e-01 8.05e-01 3.33e+01  -9.0 2.17e+02  -8.2 1.00e+00 7.82e-01h  1
 168 -1.3086222e-01 6.53e-01 3.24e+03  -9.0 4.22e+01    -  5.63e-02 1.90e-01h  1
 169 -1.3098308e-01 4.81e-01 1.53e+03  -9.0 1.62e+02  -7.8 1.79e-01 4.44e-01f  1
iter    objective    inf_pr   inf_du lg(mu)  ||d||  lg(rg) alpha_du alpha_pr  ls
 170 -1.3098290e-01 4.78e-01 1.62e+03  -9.0 4.48e+01  -7.3 1.94e-02 6.27e-03h  1
 171 -1.3098329e-01 4.78e-01 2.66e+03  -9.0 7.12e+01    -  2.92e-01 1.63e-03f  1
 172 -1.3104155e-01 3.02e-01 1.65e+03  -9.0 5.18e+01    -  6.70e-01 3.78e-01h  1
 173 -1.3116321e-01 1.70e-02 7.81e+00  -9.0 3.07e+01    -  7.70e-01 1.00e+00h  1
 174 -1.3122702e-01 8.24e-02 9.51e-02  -9.0 5.99e+01    -  9.91e-01 1.00e+00h  1
 175 -1.3124054e-01 4.92e-01 5.72e-01  -9.0 1.48e+02    -  6.19e-01 9.92e-01h  1
 176 -1.3123348e-01 4.69e-01 3.50e+00  -9.0 2.67e+02    -  3.30e-01 2.50e-01h  3
 177 -1.3122844e-01 2.51e-01 9.18e-02  -9.0 1.05e+02    -  1.00e+00 1.00e+00h  1
 178 -1.3122762e-01 2.21e-01 7.07e+00  -9.0 6.78e+01    -  1.00e+00 1.25e-01h  4
 179 -1.3122727e-01 2.08e-01 7.77e+00  -9.0 6.48e+01    -  1.00e+00 6.25e-02h  5
iter    objective    inf_pr   inf_du lg(mu)  ||d||  lg(rg) alpha_du alpha_pr  ls
 180 -1.3122183e-01 8.29e-02 2.20e-02  -9.0 6.06e+01    -  1.00e+00 1.00e+00h  1
 181 -1.3122137e-01 1.48e-03 1.62e-03  -9.0 8.01e+00    -  9.55e-01 1.00e+00h  1
 182 -1.3122131e-01 1.20e-06 1.72e-07  -9.0 2.32e-01    -  1.00e+00 1.00e+00h  1
 183 -1.3122131e-01 2.18e-10 1.98e-10  -9.0 1.56e-05    -  1.00e+00 1.00e+00h  1

Number of Iterations....: 183

                                   (scaled)                 (unscaled)
Objective...............:  -1.3122131450068736e-01   -1.3122131450068736e-01
Dual infeasibility......:   1.9776980053620719e-10    1.9776980053620719e-10
Constraint violation....:   2.1847897622995216e-10    2.1847897622995216e-10
Complementarity.........:   1.0000000073204248e-09    1.0000000073204248e-09
Overall NLP error.......:   1.0000000073204248e-09    1.0000000073204248e-09


Number of objective function evaluations             = 248
Number of objective gradient evaluations             = 184
Number of equality constraint evaluations            = 248
Number of inequality constraint evaluations          = 248
Number of equality constraint Jacobian evaluations   = 184
Number of inequality constraint Jacobian evaluations = 184
Number of Lagrangian Hessian evaluations             = 183
Total CPU secs in IPOPT (w/o function evaluations)   =    117.103
Total CPU secs in NLP function evaluations           =      2.907

EXIT: Optimal Solution Found.
